c Reduced graph for 1-FullIns_5 generated by Cyril Grelier
p edge 75 403
e 1 6
e 1 9
e 1 23
e 1 25
e 1 26
e 1 27
e 1 28
e 1 29
e 1 30
e 1 31
e 1 32
e 1 41
e 1 42
e 1 43
e 1 44
e 1 45
e 1 46
e 1 53
e 1 54
e 1 55
e 1 56
e 1 57
e 1 58
e 1 59
e 1 60
e 1 61
e 1 64
e 1 65
e 1 66
e 1 67
e 1 68
e 1 69
e 1 70
e 1 71
e 1 72
e 1 73
e 1 74
e 1 75
e 2 7
e 2 8
e 2 10
e 2 24
e 2 25
e 2 32
e 2 33
e 2 34
e 2 35
e 2 36
e 2 37
e 2 38
e 2 47
e 2 48
e 2 49
e 2 50
e 2 51
e 2 52
e 2 53
e 2 56
e 2 57
e 2 58
e 2 59
e 2 60
e 2 61
e 2 62
e 2 63
e 2 64
e 2 65
e 2 66
e 2 67
e 2 68
e 2 69
e 2 72
e 2 73
e 2 74
e 2 75
e 3 5
e 3 17
e 3 18
e 3 19
e 3 20
e 3 21
e 3 22
e 3 23
e 3 24
e 3 39
e 3 40
e 3 41
e 3 42
e 3 43
e 3 44
e 3 45
e 3 46
e 3 47
e 3 48
e 3 49
e 3 50
e 3 51
e 3 52
e 3 53
e 3 54
e 3 55
e 3 62
e 3 63
e 3 64
e 3 65
e 3 66
e 3 67
e 3 68
e 3 69
e 3 72
e 3 73
e 4 13
e 4 14
e 4 15
e 4 16
e 4 19
e 4 20
e 4 21
e 4 22
e 4 28
e 4 29
e 4 30
e 4 31
e 4 35
e 4 36
e 4 37
e 4 38
e 4 43
e 4 44
e 4 45
e 4 46
e 4 49
e 4 50
e 4 51
e 4 52
e 4 58
e 4 59
e 4 60
e 4 61
e 4 66
e 4 67
e 4 68
e 4 69
e 5 6
e 5 8
e 5 13
e 5 14
e 5 15
e 5 16
e 5 25
e 5 28
e 5 29
e 5 30
e 5 31
e 5 35
e 5 36
e 5 37
e 5 38
e 5 58
e 5 59
e 5 60
e 5 61
e 6 7
e 6 17
e 6 18
e 6 19
e 6 20
e 6 21
e 6 22
e 6 24
e 6 39
e 6 40
e 6 47
e 6 48
e 6 49
e 6 50
e 6 51
e 6 52
e 6 62
e 6 63
e 7 9
e 7 23
e 7 26
e 7 27
e 7 28
e 7 29
e 7 30
e 7 31
e 7 41
e 7 42
e 7 43
e 7 44
e 7 45
e 7 46
e 7 54
e 7 55
e 7 70
e 7 71
e 8 17
e 8 18
e 8 19
e 8 20
e 8 21
e 8 22
e 8 23
e 8 39
e 8 40
e 8 41
e 8 42
e 8 43
e 8 44
e 8 45
e 8 46
e 8 54
e 8 55
e 9 13
e 9 14
e 9 15
e 9 16
e 9 19
e 9 20
e 9 21
e 9 22
e 9 35
e 9 36
e 9 37
e 9 38
e 9 49
e 9 50
e 9 51
e 9 52
e 10 13
e 10 14
e 10 15
e 10 16
e 10 19
e 10 20
e 10 21
e 10 22
e 10 28
e 10 29
e 10 30
e 10 31
e 10 43
e 10 44
e 10 45
e 10 46
e 11 12
e 11 14
e 11 18
e 11 20
e 11 27
e 11 29
e 11 34
e 11 36
e 11 42
e 11 44
e 11 48
e 11 50
e 11 57
e 11 59
e 11 65
e 11 67
e 12 13
e 12 17
e 12 19
e 12 26
e 12 28
e 12 33
e 12 35
e 12 41
e 12 43
e 12 47
e 12 49
e 12 56
e 12 58
e 12 64
e 12 66
e 13 18
e 13 23
e 13 24
e 13 27
e 13 32
e 13 34
e 13 42
e 13 48
e 13 53
e 13 57
e 13 65
e 14 17
e 14 23
e 14 24
e 14 26
e 14 32
e 14 33
e 14 41
e 14 47
e 14 53
e 14 56
e 14 64
e 15 16
e 15 22
e 15 23
e 15 24
e 15 31
e 15 32
e 15 38
e 15 46
e 15 52
e 15 53
e 15 61
e 15 69
e 16 21
e 16 23
e 16 24
e 16 30
e 16 32
e 16 37
e 16 45
e 16 51
e 16 53
e 16 60
e 16 68
e 17 25
e 17 27
e 17 29
e 17 34
e 17 36
e 17 57
e 17 59
e 18 25
e 18 26
e 18 28
e 18 33
e 18 35
e 18 56
e 18 58
e 19 25
e 19 27
e 19 32
e 19 34
e 19 57
e 20 25
e 20 26
e 20 32
e 20 33
e 20 56
e 21 25
e 21 31
e 21 32
e 21 38
e 21 61
e 22 25
e 22 30
e 22 32
e 22 37
e 22 60
e 23 35
e 23 36
e 23 37
e 23 38
e 24 28
e 24 29
e 24 30
e 24 31
e 25 39
e 25 40
e 26 34
e 26 36
e 26 48
e 26 50
e 27 33
e 27 35
e 27 47
e 27 49
e 28 34
e 28 48
e 29 33
e 29 47
e 30 38
e 30 52
e 31 37
e 31 51
e 33 42
e 33 44
e 34 41
e 34 43
e 35 42
e 36 41
e 37 46
e 38 45
e 39 40
e 39 55
e 39 63
e 39 73
e 40 54
e 40 62
e 40 72
e 54 63
e 55 62
e 70 71
e 70 75
e 71 74
